54
1 0 39
2 0 5
2 1 46
3 0 33
3 1 9
3 2 40
4 0 24
4 1 43
4 2 47
4 3 36
5 0 7
5 1 17
5 2 8
5 3 4
5 4 5
6 0 42
6 1 12
6 2 10
6 3 4
6 4 48
6 5 14
7 0 45
7 1 17
7 2 5
7 3 7
7 4 16
7 5 42
7 6 14
8 0 37
8 1 47
8 2 44
8 3 2
8 4 21
8 5 4
8 6 37
8 7 44
9 0 46
9 1 36
9 2 25
9 3 19
9 4 17
9 5 12
9 6 9
9 7 45
9 8 19
10 0 45
10 1 22
10 2 15
10 3 4
10 4 11
10 5 39
10 6 35
10 7 10
10 8 13
10 9 19
11 0 33
11 1 33
11 2 45
11 3 50
11 4 24
11 5 52
11 6 49
11 7 7
11 8 42
11 9 33
11 10 37
12 0 16
12 1 5
12 2 21
12 3 13
12 4 8
12 5 6
12 6 4
12 7 52
12 8 48
12 9 22
12 10 20
12 11 33
13 0 27
13 1 36
13 2 44
13 3 8
13 4 34
13 5 35
13 6 44
13 7 15
13 8 49
13 9 48
13 10 50
13 11 11
13 12 24
14 0 12
14 1 3
14 2 47
14 3 10
14 4 18
14 5 48
14 6 28
14 7 26
14 8 30
14 9 23
14 10 4
14 11 22
14 12 7
14 13 27
15 0 28
15 1 23
15 2 35
15 3 11
15 4 48
15 5 3
15 6 4
15 7 45
15 8 36
15 9 22
15 10 22
15 11 14
15 12 8
15 13 29
15 14 1
16 0 47
16 1 23
16 2 16
16 3 28
16 4 1
16 5 26
16 6 37
16 7 49
16 8 2
16 9 34
16 10 31
16 11 29
16 12 25
16 13 33
16 14 38
16 15 25
17 0 21
17 1 41
17 2 26
17 3 17
17 4 9
17 5 19
17 6 4
17 7 48
17 8 1
17 9 30
17 10 42
17 11 23
17 12 24
17 13 17
17 14 49
17 15 45
17 16 44
18 0 25
18 1 50
18 2 17
18 3 31
18 4 51
18 5 21
18 6 13
18 7 32
18 8 35
18 9 36
18 10 15
18 11 10
18 12 5
18 13 21
18 14 50
18 15 20
18 16 46
18 17 4
19 0 52
19 1 25
19 2 27
19 3 17
19 4 2
19 5 11
19 6 28
19 7 7
19 8 7
19 9 46
19 10 24
19 11 18
19 12 11
19 13 16
19 14 48
19 15 38
19 16 23
19 17 26
19 18 1
20 0 20
20 1 9
20 2 19
20 3 34
20 4 6
20 5 46
20 6 45
20 7 18
20 8 1
20 9 10
20 10 20
20 11 5
20 12 37
20 13 12
20 14 23
20 15 46
20 16 35
20 17 22
20 18 34
20 19 8
21 0 32
21 1 41
21 2 38
21 3 16
21 4 2
21 5 24
21 6 13
21 7 50
21 8 14
21 9 27
21 10 45
21 11 32
21 12 35
21 13 42
21 14 35
21 15 48
21 16 45
21 17 11
21 18 40
21 19 41
21 20 45
22 0 22
22 1 2
22 2 39
22 3 50
22 4 14
22 5 5
22 6 37
22 7 29
22 8 11
22 9 21
22 10 41
22 11 43
22 12 22
22 13 25
22 14 36
22 15 34
22 16 35
22 17 26
22 18 15
22 19 45
22 20 48
22 21 31
23 0 52
23 1 25
23 2 16
23 3 43
23 4 5
23 5 49
23 6 46
23 7 31
23 8 15
23 9 16
23 10 22
23 11 2
23 12 7
23 13 41
23 14 4
23 15 20
23 16 50
23 17 18
23 18 30
23 19 35
23 20 24
23 21 5
23 22 35
24 0 9
24 1 15
24 2 36
24 3 18
24 4 13
24 5 1
24 6 50
24 7 33
24 8 45
24 9 30
24 10 35
24 11 43
24 12 30
24 13 45
24 14 44
24 15 5
24 16 47
24 17 7
24 18 13
24 19 24
24 20 31
24 21 22
24 22 47
24 23 6
25 0 40
25 1 10
25 2 40
25 3 33
25 4 16
25 5 43
25 6 48
25 7 38
25 8 46
25 9 33
25 10 40
25 11 24
25 12 17
25 13 29
25 14 25
25 15 9
25 16 24
25 17 40
25 18 9
25 19 21
25 20 23
25 21 1
25 22 47
25 23 27
25 24 22
26 0 43
26 1 24
26 2 8
26 3 41
26 4 25
26 5 15
26 6 22
26 7 23
26 8 22
26 9 16
26 10 17
26 11 6
26 12 52
26 13 16
26 14 13
26 15 8
26 16 52
26 17 10
26 18 14
26 19 37
26 20 27
26 21 13
26 22 25
26 23 9
26 24 52
26 25 20
27 0 45
27 1 8
27 2 13
27 3 37
27 4 13
27 5 27
27 6 5
27 7 3
27 8 21
27 9 2
27 10 48
27 11 26
27 12 18
27 13 48
27 14 8
27 15 32
27 16 18
27 17 19
27 18 25
27 19 15
27 20 14
27 21 17
27 22 14
27 23 11
27 24 15
27 25 43
27 26 37
28 0 23
28 1 44
28 2 13
28 3 27
28 4 30
28 5 40
28 6 4
28 7 6
28 8 28
28 9 37
28 10 33
28 11 39
28 12 45
28 13 14
28 14 24
28 15 47
28 16 7
28 17 28
28 18 17
28 19 9
28 20 48
28 21 2
28 22 3
28 23 6
28 24 12
28 25 4
28 26 51
28 27 46
29 0 30
29 1 6
29 2 5
29 3 46
29 4 48
29 5 40
29 6 42
29 7 19
29 8 15
29 9 12
29 10 29
29 11 49
29 12 37
29 13 29
29 14 33
29 15 30
29 16 43
29 17 48
29 18 17
29 19 4
29 20 11
29 21 47
29 22 41
29 23 24
29 24 23
29 25 17
29 26 28
29 27 49
29 28 16
30 0 6
30 1 18
30 2 40
30 3 42
30 4 22
30 5 11
30 6 42
30 7 36
30 8 50
30 9 8
30 10 12
30 11 38
30 12 49
30 13 20
30 14 38
30 15 5
30 16 27
30 17 11
30 18 17
30 19 23
30 20 26
30 21 21
30 22 25
30 23 31
30 24 20
30 25 50
30 26 10
30 27 38
30 28 30
30 29 35
31 0 5
31 1 45
31 2 48
31 3 40
31 4 8
31 5 37
31 6 43
31 7 33
31 8 2
31 9 18
31 10 7
31 11 17
31 12 22
31 13 11
31 14 50
31 15 10
31 16 51
31 17 19
31 18 22
31 19 20
31 20 25
31 21 7
31 22 2
31 23 21
31 24 25
31 25 20
31 26 50
31 27 16
31 28 26
31 29 11
31 30 31
32 0 21
32 1 40
32 2 42
32 3 3
32 4 50
32 5 28
32 6 35
32 7 42
32 8 48
32 9 47
32 10 17
32 11 52
32 12 18
32 13 38
32 14 28
32 15 37
32 16 45
32 17 41
32 18 29
32 19 52
32 20 40
32 21 15
32 22 35
32 23 22
32 24 19
32 25 30
32 26 15
32 27 29
32 28 31
32 29 29
32 30 22
32 31 19
33 0 7
33 1 5
33 2 6
33 3 49
33 4 29
33 5 33
33 6 10
33 7 29
33 8 11
33 9 20
33 10 26
33 11 7
33 12 40
33 13 17
33 14 22
33 15 42
33 16 45
33 17 28
33 18 20
33 19 43
33 20 3
33 21 32
33 22 30
33 23 10
33 24 4
33 25 24
33 26 7
33 27 45
33 28 11
33 29 14
33 30 30
33 31 7
33 32 5
34 0 52
34 1 6
34 2 41
34 3 25
34 4 9
34 5 10
34 6 49
34 7 30
34 8 3
34 9 24
34 10 46
34 11 1
34 12 36
34 13 45
34 14 4
34 15 41
34 16 49
34 17 34
34 18 14
34 19 25
34 20 44
34 21 27
34 22 27
34 23 27
34 24 41
34 25 9
34 26 18
34 27 34
34 28 21
34 29 44
34 30 11
34 31 40
34 32 10
34 33 49
35 0 27
35 1 15
35 2 47
35 3 23
35 4 24
35 5 22
35 6 48
35 7 51
35 8 15
35 9 38
35 10 27
35 11 31
35 12 16
35 13 34
35 14 48
35 15 37
35 16 15
35 17 4
35 18 40
35 19 40
35 20 7
35 21 8
35 22 8
35 23 26
35 24 4
35 25 49
35 26 18
35 27 44
35 28 48
35 29 16
35 30 51
35 31 51
35 32 37
35 33 34
35 34 25
36 0 2
36 1 52
36 2 49
36 3 20
36 4 19
36 5 49
36 6 17
36 7 32
36 8 24
36 9 16
36 10 17
36 11 24
36 12 41
36 13 26
36 14 12
36 15 31
36 16 29
36 17 7
36 18 26
36 19 51
36 20 28
36 21 37
36 22 47
36 23 1
36 24 1
36 25 26
36 26 48
36 27 16
36 28 11
36 29 21
36 30 37
36 31 15
36 32 36
36 33 46
36 34 27
36 35 6
37 0 50
37 1 51
37 2 14
37 3 42
37 4 43
37 5 37
37 6 49
37 7 30
37 8 26
37 9 46
37 10 51
37 11 37
37 12 23
37 13 52
37 14 19
37 15 23
37 16 18
37 17 17
37 18 37
37 19 45
37 20 1
37 21 50
37 22 15
37 23 27
37 24 35
37 25 4
37 26 29
37 27 25
37 28 10
37 29 38
37 30 3
37 31 52
37 32 21
37 33 48
37 34 26
37 35 44
37 36 52
38 0 47
38 1 19
38 2 12
38 3 8
38 4 47
38 5 26
38 6 35
38 7 43
38 8 22
38 9 21
38 10 18
38 11 4
38 12 17
38 13 14
38 14 36
38 15 6
38 16 3
38 17 52
38 18 18
38 19 42
38 20 30
38 21 27
38 22 40
38 23 46
38 24 15
38 25 25
38 26 51
38 27 11
38 28 30
38 29 48
38 30 16
38 31 31
38 32 52
38 33 25
38 34 7
38 35 9
38 36 13
38 37 23
39 0 6
39 1 14
39 2 15
39 3 20
39 4 1
39 5 20
39 6 23
39 7 28
39 8 30
39 9 36
39 10 8
39 11 46
39 12 40
39 13 48
39 14 49
39 15 36
39 16 21
39 17 48
39 18 25
39 19 5
39 20 2
39 21 1
39 22 52
39 23 37
39 24 27
39 25 2
39 26 32
39 27 36
39 28 42
39 29 30
39 30 41
39 31 20
39 32 32
39 33 49
39 34 24
39 35 38
39 36 15
39 37 41
39 38 26
40 0 1
40 1 42
40 2 25
40 3 10
40 4 26
40 5 1
40 6 29
40 7 20
40 8 14
40 9 2
40 10 42
40 11 10
40 12 51
40 13 2
40 14 7
40 15 18
40 16 41
40 17 24
40 18 44
40 19 47
40 20 14
40 21 18
40 22 17
40 23 28
40 24 12
40 25 34
40 26 52
40 27 45
40 28 42
40 29 15
40 30 8
40 31 24
40 32 6
40 33 41
40 34 8
40 35 26
40 36 26
40 37 17
40 38 49
40 39 8
41 0 49
41 1 35
41 2 38
41 3 13
41 4 23
41 5 34
41 6 40
41 7 42
41 8 9
41 9 34
41 10 5
41 11 20
41 12 44
41 13 22
41 14 37
41 15 25
41 16 33
41 17 23
41 18 2
41 19 9
41 20 23
41 21 26
41 22 1
41 23 12
41 24 32
41 25 47
41 26 32
41 27 39
41 28 52
41 29 50
41 30 15
41 31 24
41 32 19
41 33 27
41 34 1
41 35 14
41 36 19
41 37 17
41 38 35
41 39 26
41 40 23
42 0 4
42 1 45
42 2 47
42 3 36
42 4 6
42 5 42
42 6 26
42 7 17
42 8 49
42 9 23
42 10 49
42 11 12
42 12 25
42 13 4
42 14 32
42 15 50
42 16 23
42 17 21
42 18 47
42 19 4
42 20 6
42 21 20
42 22 18
42 23 27
42 24 49
42 25 25
42 26 33
42 27 34
42 28 3
42 29 16
42 30 20
42 31 4
42 32 4
42 33 29
42 34 24
42 35 13
42 36 46
42 37 45
42 38 17
42 39 32
42 40 34
42 41 42
43 0 18
43 1 51
43 2 49
43 3 26
43 4 10
43 5 41
43 6 27
43 7 8
43 8 1
43 9 5
43 10 39
43 11 42
43 12 36
43 13 7
43 14 17
43 15 45
43 16 17
43 17 35
43 18 21
43 19 22
43 20 8
43 21 50
43 22 15
43 23 21
43 24 10
43 25 22
43 26 24
43 27 36
43 28 21
43 29 39
43 30 30
43 31 20
43 32 7
43 33 6
43 34 29
43 35 21
43 36 14
43 37 15
43 38 51
43 39 1
43 40 15
43 41 8
43 42 28
44 0 22
44 1 51
44 2 3
44 3 2
44 4 13
44 5 45
44 6 28
44 7 21
44 8 19
44 9 9
44 10 34
44 11 24
44 12 39
44 13 14
44 14 4
44 15 37
44 16 4
44 17 41
44 18 18
44 19 8
44 20 24
44 21 31
44 22 8
44 23 46
44 24 13
44 25 39
44 26 29
44 27 16
44 28 50
44 29 42
44 30 26
44 31 41
44 32 43
44 33 18
44 34 39
44 35 15
44 36 24
44 37 12
44 38 34
44 39 19
44 40 29
44 41 18
44 42 49
44 43 27
45 0 30
45 1 38
45 2 22
45 3 31
45 4 12
45 5 4
45 6 38
45 7 4
45 8 38
45 9 20
45 10 49
45 11 14
45 12 12
45 13 1
45 14 6
45 15 26
45 16 14
45 17 31
45 18 44
45 19 17
45 20 35
45 21 17
45 22 30
45 23 2
45 24 24
45 25 39
45 26 1
45 27 48
45 28 42
45 29 3
45 30 6
45 31 15
45 32 45
45 33 27
45 34 19
45 35 2
45 36 7
45 37 18
45 38 23
45 39 17
45 40 39
45 41 24
45 42 13
45 43 42
45 44 37
46 0 47
46 1 9
46 2 1
46 3 50
46 4 21
46 5 49
46 6 22
46 7 7
46 8 47
46 9 16
46 10 49
46 11 39
46 12 52
46 13 38
46 14 43
46 15 44
46 16 4
46 17 24
46 18 30
46 19 50
46 20 12
46 21 1
46 22 44
46 23 51
46 24 49
46 25 29
46 26 50
46 27 17
46 28 1
46 29 4
46 30 7
46 31 28
46 32 30
46 33 9
46 34 34
46 35 7
46 36 36
46 37 43
46 38 34
46 39 13
46 40 20
46 41 24
46 42 11
46 43 41
46 44 38
46 45 15
47 0 46
47 1 30
47 2 21
47 3 35
47 4 47
47 5 3
47 6 7
47 7 51
47 8 33
47 9 28
47 10 27
47 11 8
47 12 3
47 13 50
47 14 17
47 15 1
47 16 25
47 17 31
47 18 20
47 19 6
47 20 24
47 21 18
47 22 29
47 23 15
47 24 45
47 25 21
47 26 13
47 27 39
47 28 27
47 29 22
47 30 39
47 31 2
47 32 47
47 33 34
47 34 13
47 35 8
47 36 30
47 37 27
47 38 4
47 39 43
47 40 36
47 41 33
47 42 46
47 43 36
47 44 34
47 45 7
47 46 37
48 0 43
48 1 23
48 2 5
48 3 46
48 4 51
48 5 34
48 6 9
48 7 27
48 8 16
48 9 2
48 10 36
48 11 4
48 12 24
48 13 52
48 14 11
48 15 45
48 16 33
48 17 28
48 18 37
48 19 48
48 20 29
48 21 24
48 22 19
48 23 16
48 24 28
48 25 48
48 26 26
48 27 48
48 28 20
48 29 32
48 30 47
48 31 21
48 32 33
48 33 50
48 34 2
48 35 30
48 36 8
48 37 28
48 38 21
48 39 29
48 40 21
48 41 12
48 42 17
48 43 25
48 44 46
48 45 52
48 46 49
48 47 39
49 0 20
49 1 12
49 2 49
49 3 36
49 4 5
49 5 50
49 6 33
49 7 24
49 8 42
49 9 39
49 10 9
49 11 23
49 12 37
49 13 29
49 14 6
49 15 27
49 16 26
49 17 12
49 18 30
49 19 1
49 20 42
49 21 18
49 22 34
49 23 48
49 24 4
49 25 24
49 26 4
49 27 52
49 28 37
49 29 6
49 30 51
49 31 44
49 32 34
49 33 8
49 34 19
49 35 41
49 36 52
49 37 49
49 38 39
49 39 22
49 40 28
49 41 52
49 42 50
49 43 9
49 44 35
49 45 41
49 46 49
49 47 44
49 48 37
50 0 30
50 1 24
50 2 28
50 3 16
50 4 12
50 5 31
50 6 7
50 7 13
50 8 30
50 9 30
50 10 2
50 11 23
50 12 2
50 13 32
50 14 17
50 15 15
50 16 52
50 17 15
50 18 9
50 19 47
50 20 29
50 21 3
50 22 14
50 23 10
50 24 43
50 25 40
50 26 32
50 27 17
50 28 4
50 29 14
50 30 44
50 31 15
50 32 19
50 33 24
50 34 14
50 35 33
50 36 6
50 37 26
50 38 41
50 39 29
50 40 12
50 41 46
50 42 35
50 43 40
50 44 23
50 45 32
50 46 48
50 47 2
50 48 2
50 49 40
51 0 31
51 1 12
51 2 11
51 3 5
51 4 8
51 5 14
51 6 30
51 7 31
51 8 50
51 9 7
51 10 40
51 11 52
51 12 29
51 13 16
51 14 47
51 15 35
51 16 52
51 17 43
51 18 33
51 19 29
51 20 28
51 21 45
51 22 40
51 23 40
51 24 34
51 25 52
51 26 51
51 27 26
51 28 49
51 29 48
51 30 46
51 31 46
51 32 20
51 33 35
51 34 24
51 35 2
51 36 9
51 37 30
51 38 41
51 39 44
51 40 52
51 41 20
51 42 27
51 43 32
51 44 25
51 45 19
51 46 22
51 47 5
51 48 4
51 49 14
51 50 50
52 0 15
52 1 51
52 2 33
52 3 5
52 4 8
52 5 16
52 6 26
52 7 4
52 8 51
52 9 2
52 10 37
52 11 26
52 12 13
52 13 20
52 14 27
52 15 47
52 16 7
52 17 19
52 18 43
52 19 1
52 20 41
52 21 2
52 22 30
52 23 15
52 24 24
52 25 22
52 26 48
52 27 43
52 28 44
52 29 19
52 30 13
52 31 45
52 32 3
52 33 26
52 34 18
52 35 33
52 36 27
52 37 19
52 38 2
52 39 47
52 40 22
52 41 10
52 42 11
52 43 5
52 44 23
52 45 48
52 46 3
52 47 6
52 48 7
52 49 29
52 50 45
52 51 38
53 0 52
53 1 40
53 2 45
53 3 9
53 4 13
53 5 29
53 6 41
53 7 40
53 8 36
53 9 4
53 10 12
53 11 24
53 12 15
53 13 17
53 14 44
53 15 9
53 16 16
53 17 51
53 18 12
53 19 16
53 20 9
53 21 34
53 22 42
53 23 48
53 24 15
53 25 31
53 26 3
53 27 27
53 28 31
53 29 12
53 30 8
53 31 17
53 32 35
53 33 11
53 34 21
53 35 22
53 36 18
53 37 7
53 38 26
53 39 23
53 40 22
53 41 39
53 42 18
53 43 10
53 44 3
53 45 14
53 46 44
53 47 45
53 48 20
53 49 27
53 50 47
53 51 32
53 52 2
